results_rootrelaxation/bin018_050_028.srr.sol
solution status: optimal solution found
objective value:                                    0
_var288_                              0.1678768003309 	(obj:0)
_var451_                            0.140030931450241 	(obj:0)
_var577_                            0.249957072939557 	(obj:0)
_var905_                           0.0888630770872442 	(obj:0)
_var1022_                           0.167654892244667 	(obj:0)
_var1539_                           0.107418366916197 	(obj:0)
_var2621_                          0.0554312511508908 	(obj:0)
_var2624_                            0.12629508496451 	(obj:0)
_var2625_                           0.152336586486629 	(obj:0)
_var2626_                          0.0801040366003056 	(obj:0)
_var2627_                           0.191714025488949 	(obj:0)
_var2628_                           0.168022092426371 	(obj:0)
_var2629_                          0.0181373698376928 	(obj:0)
_var2631_                           0.227783384929754 	(obj:0)
_var2634_                          0.0678572370913579 	(obj:0)
_var2637_                            0.11081941361243 	(obj:0)
_var2657_                           0.357093398637114 	(obj:0)
_var2660_                           0.234273566495383 	(obj:0)
_var2663_                           0.072197392263118 	(obj:0)
_var2666_                            0.42307286284941 	(obj:0)
_var2668_                          0.0118333838700053 	(obj:0)
_var2670_                           0.082991625175007 	(obj:0)
_var2672_                           0.361433717640888 	(obj:0)
_var2680_                          0.0731258859904279 	(obj:0)
_var2688_                           0.099132791693361 	(obj:0)
_var2689_                           0.158007529085512 	(obj:0)
_var2690_                           0.145946126427742 	(obj:0)
_var2693_                           0.212928836801048 	(obj:0)
_var2696_                           0.237402649976523 	(obj:0)
_var2697_                          0.0183463394329848 	(obj:0)
_var2698_                           0.132958119498285 	(obj:0)
_var2701_                          0.0621916898215523 	(obj:0)
_var2702_                          0.0341543568972551 	(obj:0)
_var2703_                           0.182327605435423 	(obj:0)
_var2704_                          0.0585019918125666 	(obj:0)
_var2709_                           0.299095039499647 	(obj:0)
_var2718_                          0.0884940242046163 	(obj:0)
_var2719_                           0.156398514691357 	(obj:0)
_var2723_                          0.0604298767105171 	(obj:0)
_var2724_                          0.0310255779756976 	(obj:0)
_var2725_                          0.0715713132235829 	(obj:0)
_var2726_                          0.0523468936987959 	(obj:0)
_var2727_                           0.207965866028658 	(obj:0)
_var2730_                           0.320250045800065 	(obj:0)
_var2731_                           0.112971285276301 	(obj:0)
_var2732_                         5.97031722740607e-05 	(obj:0)
_var2733_                          0.0847974620734766 	(obj:0)
_var2737_                          0.0251792308019954 	(obj:0)
_var2739_                           0.118906397149116 	(obj:0)
_var2741_                           0.197770431267522 	(obj:0)
_var2745_                           0.217422318655002 	(obj:0)
_var2746_                           0.325909089369171 	(obj:0)
_var2747_                          0.0376217729280778 	(obj:0)
_var2750_                           0.305254112360739 	(obj:0)
_var2753_                           0.180975583511744 	(obj:0)
_var2755_                           0.156699931464271 	(obj:0)
_var2757_                           0.204408939402406 	(obj:0)
_var2760_                          0.0403481224249909 	(obj:0)
_var2761_                           0.351561641639505 	(obj:0)
_var2762_                          0.0719756603318476 	(obj:0)
_var2768_                           0.283837369555856 	(obj:0)
_var2772_                           0.118623334750112 	(obj:0)
_var2773_                          0.0895731769656475 	(obj:0)
_var2774_                         0.00125996134904241 	(obj:0)
_var2775_                          0.0743560640919736 	(obj:0)
_var2776_                           0.049903713772053 	(obj:0)
_var2778_                          0.0433956084129877 	(obj:0)
_var2782_                           0.204448169782931 	(obj:0)
_var2785_                           0.121457908265366 	(obj:0)
_var2786_                          0.0571299647124811 	(obj:0)
_var2788_                           0.294437951984267 	(obj:0)
_var2792_                          0.0740237729492336 	(obj:0)
_var2796_                         0.00299794196940699 	(obj:0)
_var2799_                           0.170885909079055 	(obj:0)
_var2800_                           0.239190598798639 	(obj:0)
_var2801_                          0.0864418258262575 	(obj:0)
_var2802_                         0.00607148535799926 	(obj:0)
_var2803_                          0.0926757750465868 	(obj:0)
_var2804_                          0.0935464983347045 	(obj:0)
_var2805_                           0.069029378676637 	(obj:0)
_var2807_                           0.104847215553702 	(obj:0)
_var2809_                          0.0362258092262546 	(obj:0)
_var2810_                           0.079164772745758 	(obj:0)
_var2811_                            0.12322173202683 	(obj:0)
_var2814_                          0.0916302075702519 	(obj:0)
_var2815_                           0.120300895438532 	(obj:0)
_var2816_                          0.0655945792394959 	(obj:0)
_var2818_                           0.132291952013595 	(obj:0)
_var2819_                          0.0216998888749777 	(obj:0)
_var2824_                           0.117251175765022 	(obj:0)
_var2827_                          0.0612914126361061 	(obj:0)
_var2828_                           0.102385518671843 	(obj:0)
_var2830_                           0.171007495953405 	(obj:0)
_var2831_                          0.0846630678639081 	(obj:0)
_var2834_                           0.213590600484069 	(obj:0)
_var2835_                         0.00232822820589095 	(obj:0)
_var2836_                          0.0569357710772066 	(obj:0)
_var2837_                           0.373241830341464 	(obj:0)
_var2838_                          0.0134293139812032 	(obj:0)
_var2839_                          0.0112151875736957 	(obj:0)
_var2840_                           0.165092963392583 	(obj:0)
_var2841_                           0.109914970238486 	(obj:0)
_var2843_                           0.136817603874884 	(obj:0)
_var2844_                          0.0161275693928556 	(obj:0)
_var2845_                           0.021669980291081 	(obj:0)
_var2847_                         0.00490075519688872 	(obj:0)
_var2848_                          0.0586343113412814 	(obj:0)
_var2850_                           0.153260344619812 	(obj:0)
_var2851_                           0.132769029830168 	(obj:0)
_var2854_                           0.109364075979003 	(obj:0)
_var2856_                           0.243882430374128 	(obj:0)
_var2857_                          0.0781030730602323 	(obj:0)
_var2859_                             0.1251164079226 	(obj:0)
_var2860_                           0.073016121817714 	(obj:0)
_var2861_                           0.152114538953621 	(obj:0)
_var2864_                          0.0605237514007937 	(obj:0)
_var2866_                          0.0229421707755358 	(obj:0)
_var2867_                            0.11103272447818 	(obj:0)
_var2874_                           0.215262419759997 	(obj:0)
_var2876_                          0.0297345324866413 	(obj:0)
_var2877_                           0.133523834948991 	(obj:0)
_var2878_                           0.133377409692201 	(obj:0)
_var2879_                           0.103385523512254 	(obj:0)
_var2880_                          0.0318114606311721 	(obj:0)
_var2883_                          0.0109573834866175 	(obj:0)
_var2885_                           0.166692609394595 	(obj:0)
_var2887_                          0.0169726710885849 	(obj:0)
_var2888_                          0.0368990495204066 	(obj:0)
_var2890_                          0.0455972700592845 	(obj:0)
_var2891_                           0.113513003024828 	(obj:0)
_var2892_                          0.0570475129565798 	(obj:0)
_var2895_                           0.079355870946709 	(obj:0)
_var2896_                           0.112773696363348 	(obj:0)
_var2898_                          0.0396876461557519 	(obj:0)
_var2900_                         0.00821185892618899 	(obj:0)
_var2902_                          0.0402079656357058 	(obj:0)
_var2903_                           0.131729396670576 	(obj:0)
_var2905_                          0.0669484946038118 	(obj:0)
_var2906_                          0.0239712383519153 	(obj:0)
_var2907_                           0.128330945094563 	(obj:0)
_var2910_                         0.00417778425149591 	(obj:0)
_var2911_                         0.00843158033274292 	(obj:0)
_var2915_                           0.117106827241217 	(obj:0)
_var2917_                          0.0742911302420856 	(obj:0)
_var2919_                          0.0637991883225044 	(obj:0)
_var2920_                          0.0293736379197105 	(obj:0)
_var2921_                          0.0699520429305998 	(obj:0)
_var2922_                           0.113055095770077 	(obj:0)
_var2926_                          0.0248524538209878 	(obj:0)
_var2930_                          0.0184784085467013 	(obj:0)
_var2936_                            0.01073218486376 	(obj:0)
_var2942_                           0.011211657560406 	(obj:0)
